WARNING: for repeatability, setting FPU to use double precision
============================[ Problem Statistics ]=============================
|                                                                             |
|  Number of variables:            30                                         |
|  Number of clauses:             145                                         |
|  Parse time:                   0.00 s                                       |
|                                                                             |
============================[ Search Statistics ]==============================
| Conflicts |          ORIGINAL         |          LEARNT          | Progress |
|           |    Vars  Clauses Literals |    Limit  Clauses Lit/Cl |          |
===============================================================================
===============================================================================
restarts              : 1
conflicts             : 7              (1936 /sec)
decisions             : 7              (0.00 % random) (1936 /sec)
propagations          : 114            (31527 /sec)
conflict literals     : 12             (7.69 % deleted)
Memory used           : 11.00 MB
CPU time              : 0.003616 s

UNSATISFIABLE
